n_res = 4;
rcap = [18, 19, 210, 186];
rtype = [1, 1, 2, 2];
n_tasks = 30;
modes = [ {1, 2, 3}, {4, 5, 6}, {7, 8, 9}, {10, 11, 12}, {13, 14, 15}, {16, 17, 18}, {19, 20, 21}, {22, 23, 24}, {25, 26, 27}, {28, 29, 30}, {31, 32, 33}, {34, 35, 36}, {37, 38, 39}, {40, 41, 42}, {43, 44, 45}, {46, 47, 48}, {49, 50, 51}, {52, 53, 54}, {55, 56, 57}, {58, 59, 60}, {61, 62, 63}, {64, 65, 66}, {67, 68, 69}, {70, 71, 72}, {73, 74, 75}, {76, 77, 78}, {79, 80, 81}, {82, 83, 84}, {85, 86, 87}, {88, 89, 90} ];
succ = [ {10, 22, 27}, {4, 18}, {11, 17, 30}, {5, 17, 22}, {6, 7, 8}, {9}, {12, 15, 27}, {19, 30}, {16, 19, 20}, {14, 17, 20}, {16}, {13, 16}, {19}, {23}, {20, 24}, {24}, {24, 26, 28}, {22, 27, 28}, {21}, {25, 30}, {23, 25}, {23}, {26}, {29}, {26, 28}, {29}, {29}, {}, {}, {} ];
n_opt = 90;
dur = [2, 3, 5, 3, 5, 10, 2, 9, 9, 2, 3, 6, 1, 9, 10, 2, 8, 8, 2, 4, 10, 1, 1, 4, 1, 5, 10, 4, 6, 8, 5, 8, 10, 1, 4, 4, 7, 8, 9, 3, 5, 10, 3, 8, 9, 3, 6, 9, 1, 6, 8, 5, 5, 8, 3, 8, 9, 3, 7, 10, 3, 5, 8, 2, 6, 9, 5, 6, 10, 2, 2, 6, 1, 8, 10, 2, 3, 4, 1, 2, 4, 2, 8, 8, 4, 5, 5, 3, 5, 10];
rreq = [|  6,  4,  4,  8,  8,  6,  6,  6,  6,  7,  4,  3,  2,  2,  2,  4,  3,  2,  6,  6,  3,  6,  7,  2,  7,  7,  3,  5,  5,  4,  9,  8,  5,  8,  5,  4,  9,  8,  7,  6,  6,  6,  5,  5,  4,  8,  7,  5,  9,  6,  5,  8,  8,  7,  8,  6,  1,  4,  3,  2,  2,  1,  1,  3,  3,  3,  5,  5,  3,  7,  7,  7, 10,  7,  3,  3,  3,  3,  5,  4,  4,  8,  6,  5,  9,  9,  8,  9,  8,  5
        |  6,  6,  6,  6,  3,  1,  8,  3,  4,  7,  5,  1,  8,  8,  7, 10,  9, 10,  5,  5,  5,  8,  6,  5,  7,  6,  1,  8,  6,  5,  7,  6,  5,  8,  8,  6,  6,  5,  3, 10,  6,  4, 10,  7,  6,  8,  8,  6,  1,  1,  1,  7,  9,  2,  5,  5,  5,  8,  8,  8,  7,  6,  5, 10,  9,  9,  5,  3,  2,  9, 10,  8,  7,  5,  5,  5,  4,  2,  5,  5,  3,  8,  5,  6,  8,  4,  5,  4,  3,  3
        | 10,  6,  4,  9,  8,  7,  8,  4,  4,  8,  8,  7,  4,  4,  4,  6,  5,  4,  8,  5,  4,  8,  9,  6,  7,  6,  6,  8,  8,  7,  6,  5,  5,  6,  4,  4,  7,  4,  3, 10, 10, 10,  8,  8,  8,  8,  4,  3, 10,  9,  6,  7,  5,  5,  8,  7,  7,  3,  2,  2,  2,  2,  2,  7,  6,  4, 10,  8,  7,  7,  6,  4,  2,  1,  1, 10, 10, 10,  1,  1,  1,  4,  4,  4,  7,  4,  6, 10,  8,  5
        |  9,  8,  3,  8,  4,  2,  2,  2,  1,  6,  5,  2, 10,  8,  4,  5,  3,  3,  8,  6,  3,  8,  7,  7,  8,  7,  2,  3,  3,  3,  7,  7,  4, 10,  4,  5, 10,  5,  3, 10, 10, 10,  6,  6,  5, 10,  5,  5,  3,  3,  3,  3,  3,  2,  3,  2,  2,  5,  5,  5,  5,  2,  1,  4,  3,  3,  3,  2,  2, 10, 10,  9,  7,  6,  3,  8,  4,  4,  4,  3,  1,  4,  3,  3,  2,  2,  2,  5,  5,  5 |];
